(set-info :source |printed by MathSAT|)
(declare-fun |!{$(in_main#0)<$(in_rec_array_bubble_sort#4)<j>>}| () Int)
(declare-fun |!{$(in_main#0)<$(in_rec_array_bubble_sort#4)<j>>}.next| () Int)
(declare-fun |!{$(in_main#0)<$(in_rec_array_bubble_sort#4)<swapped>>}| () Int)
(declare-fun |!{$(in_main#0)<$(in_rec_array_bubble_sort#4)<swapped>>}.next| () Int)
(declare-fun |!{$(in_main#0)<N>}| () Int)
(declare-fun |!{$(in_main#0)<N>}.next| () Int)
(declare-fun |!{$(in_main#0)<&array>}| () Int)
(declare-fun |!{$(in_main#0)<&array>}.next| () Int)
(declare-fun |!{$(in_main#0)<k>}| () Int)
(declare-fun |!{$(in_main#0)<k>}.next| () Int)
(declare-fun |!{$(in_main#0)<k#1>}| () Int)
(declare-fun |!{$(in_main#0)<k#1>}.next| () Int)
(declare-fun |!{$(in_main#0)<l>}| () Int)
(declare-fun |!{$(in_main#0)<l>}.next| () Int)
(declare-fun |!{$(in_main#0)<$(in_rec_array_bubble_sort#4)<$(in_rec_array_bubble_sort#0)<array>>>}| () Int)
(declare-fun |!{$(in_main#0)<$(in_rec_array_bubble_sort#4)<$(in_rec_array_bubble_sort#0)<array>>>}.next| () Int)
(declare-fun |!{$(in_main#0)<$(in_rec_array_bubble_sort#4)<$(in_rec_array_bubble_sort#0)<N>>>}| () Int)
(declare-fun |!{$(in_main#0)<$(in_rec_array_bubble_sort#4)<$(in_rec_array_bubble_sort#0)<N>>>}.next| () Int)
(declare-fun |!{$(in_main#0)<$(in_rec_array_bubble_sort#4)<$(in_rec_array_bubble_sort#0)<j>>>}| () Int)
(declare-fun |!{$(in_main#0)<$(in_rec_array_bubble_sort#4)<$(in_rec_array_bubble_sort#0)<j>>>}.next| () Int)
(declare-fun |!{$(in_main#0)<$(in_rec_array_bubble_sort#4)<$(in_rec_array_bubble_sort#0)<swapped>>>}| () Int)
(declare-fun |!{$(in_main#0)<$(in_rec_array_bubble_sort#4)<$(in_rec_array_bubble_sort#0)<swapped>>>}.next| () Int)
(declare-fun |!{%memaddr}| () Int)
(declare-fun |!{%memaddr}.next| () Int)
(declare-fun |!{%mem.0}| () (Array Int Int))
(declare-fun |!{%mem.0}.next| () (Array Int Int))
(declare-fun |!{$(in_main#0)<$(in_rec_array_bubble_sort#4)<array>>}| () Int)
(declare-fun |!{$(in_main#0)<$(in_rec_array_bubble_sort#4)<array>>}.next| () Int)
(declare-fun |!{$(in_main#0)<$(in_rec_array_bubble_sort#4)<N>>}| () Int)
(declare-fun |!{$(in_main#0)<$(in_rec_array_bubble_sort#4)<N>>}.next| () Int)
(declare-fun |!{$(in_main#0)<$(in___VERIFIER_nondet_int#1)<h#<__VERIFIER_nondet_int.return>>>}| () Int)
(declare-fun |!{$(in_main#0)<$(in___VERIFIER_nondet_int#3)<h#<__VERIFIER_nondet_int.return>>>}| () Int)
(declare-fun !pc () Int)
(declare-fun !pc.next () Int)
(declare-fun |%{$(in_main#0)<k#1>}#1| () Int)
(declare-fun |%{$(in_main#0)<l>}#1| () Int)
(declare-fun |%{$(in_main#0)<$(in_rec_array_bubble_sort#4)<$(in_rec_array_bubble_sort#0)<swapped>>>}#2| () Int)
(declare-fun |%{%mem.0}#3| () (Array Int Int))
(declare-fun |%{$(in_main#0)<$(in_rec_array_bubble_sort#4)<swapped>>}#2| () Int)
(define-fun .def_60 () Int (! !pc :next !pc.next))
(define-fun .def_63 () Bool (! (= .def_60 2) :init true))
(define-fun .def_441 () Bool (= .def_60 48))
(define-fun .def_386 () Bool (= !pc.next 77))
(define-fun .def_444 () Bool (and .def_386 .def_441))
(define-fun .def_12 () Int (! |!{$(in_main#0)<N>}| :next |!{$(in_main#0)<N>}.next|))
(define-fun .def_438 () Bool (= .def_12 |!{$(in_main#0)<$(in_rec_array_bubble_sort#4)<N>>}.next|))
(define-fun .def_14 () Int (! |!{$(in_main#0)<&array>}| :next |!{$(in_main#0)<&array>}.next|))
(define-fun .def_436 () Bool (= .def_14 |!{$(in_main#0)<$(in_rec_array_bubble_sort#4)<array>>}.next|))
(define-fun .def_423 () Bool (= |!{$(in_main#0)<$(in_rec_array_bubble_sort#4)<swapped>>}.next| 0))
(define-fun .def_420 () Int (* (- 1) .def_12))
(define-fun .def_421 () Int (+ |!{$(in_main#0)<$(in_rec_array_bubble_sort#4)<j>>}.next| .def_420))
(define-fun .def_422 () Bool (= .def_421 (- 2)))
(define-fun .def_424 () Bool (and .def_422 .def_423))
(define-fun .def_121 () Bool (= .def_12 |!{$(in_main#0)<N>}.next|))
(define-fun .def_425 () Bool (and .def_121 .def_424))
(define-fun .def_123 () Bool (= .def_14 |!{$(in_main#0)<&array>}.next|))
(define-fun .def_426 () Bool (and .def_123 .def_425))
(define-fun .def_16 () Int (! |!{$(in_main#0)<k>}| :next |!{$(in_main#0)<k>}.next|))
(define-fun .def_125 () Bool (= .def_16 |!{$(in_main#0)<k>}.next|))
(define-fun .def_427 () Bool (and .def_125 .def_426))
(define-fun .def_18 () Int (! |!{$(in_main#0)<k#1>}| :next |!{$(in_main#0)<k#1>}.next|))
(define-fun .def_127 () Bool (= .def_18 |!{$(in_main#0)<k#1>}.next|))
(define-fun .def_428 () Bool (and .def_127 .def_427))
(define-fun .def_20 () Int (! |!{$(in_main#0)<l>}| :next |!{$(in_main#0)<l>}.next|))
(define-fun .def_149 () Bool (= .def_20 |!{$(in_main#0)<l>}.next|))
(define-fun .def_429 () Bool (and .def_149 .def_428))
(define-fun .def_22 () Int (! |!{$(in_main#0)<$(in_rec_array_bubble_sort#4)<$(in_rec_array_bubble_sort#0)<array>>>}| :next |!{$(in_main#0)<$(in_rec_array_bubble_sort#4)<$(in_rec_array_bubble_sort#0)<array>>>}.next|))
(define-fun .def_93 () Bool (= .def_22 |!{$(in_main#0)<$(in_rec_array_bubble_sort#4)<$(in_rec_array_bubble_sort#0)<array>>>}.next|))
(define-fun .def_430 () Bool (and .def_93 .def_429))
(define-fun .def_24 () Int (! |!{$(in_main#0)<$(in_rec_array_bubble_sort#4)<$(in_rec_array_bubble_sort#0)<N>>>}| :next |!{$(in_main#0)<$(in_rec_array_bubble_sort#4)<$(in_rec_array_bubble_sort#0)<N>>>}.next|))
(define-fun .def_95 () Bool (= .def_24 |!{$(in_main#0)<$(in_rec_array_bubble_sort#4)<$(in_rec_array_bubble_sort#0)<N>>>}.next|))
(define-fun .def_431 () Bool (and .def_95 .def_430))
(define-fun .def_26 () Int (! |!{$(in_main#0)<$(in_rec_array_bubble_sort#4)<$(in_rec_array_bubble_sort#0)<j>>>}| :next |!{$(in_main#0)<$(in_rec_array_bubble_sort#4)<$(in_rec_array_bubble_sort#0)<j>>>}.next|))
(define-fun .def_97 () Bool (= .def_26 |!{$(in_main#0)<$(in_rec_array_bubble_sort#4)<$(in_rec_array_bubble_sort#0)<j>>>}.next|))
(define-fun .def_432 () Bool (and .def_97 .def_431))
(define-fun .def_28 () Int (! |!{$(in_main#0)<$(in_rec_array_bubble_sort#4)<$(in_rec_array_bubble_sort#0)<swapped>>>}| :next |!{$(in_main#0)<$(in_rec_array_bubble_sort#4)<$(in_rec_array_bubble_sort#0)<swapped>>>}.next|))
(define-fun .def_99 () Bool (= .def_28 |!{$(in_main#0)<$(in_rec_array_bubble_sort#4)<$(in_rec_array_bubble_sort#0)<swapped>>>}.next|))
(define-fun .def_433 () Bool (and .def_99 .def_432))
(define-fun .def_30 () Int (! |!{%memaddr}| :next |!{%memaddr}.next|))
(define-fun .def_137 () Bool (= .def_30 |!{%memaddr}.next|))
(define-fun .def_434 () Bool (and .def_137 .def_433))
(define-fun .def_32 () (Array Int Int) (! |!{%mem.0}| :next |!{%mem.0}.next|))
(define-fun .def_103 () Bool (= .def_32 |!{%mem.0}.next|))
(define-fun .def_435 () Bool (and .def_103 .def_434))
(define-fun .def_437 () Bool (and .def_435 .def_436))
(define-fun .def_439 () Bool (and .def_437 .def_438))
(define-fun .def_396 () Bool (<= .def_12 .def_16))
(define-fun .def_440 () Bool (and .def_396 .def_439))
(define-fun .def_445 () Bool (and .def_440 .def_444))
(define-fun .def_111 () Bool (= !pc.next 48))
(define-fun .def_442 () Bool (and .def_111 .def_441))
(define-fun .def_398 () Int (+ .def_14 .def_16))
(define-fun .def_399 () (Array Int Int) (store .def_32 .def_398 |!{$(in_main#0)<$(in___VERIFIER_nondet_int#3)<h#<__VERIFIER_nondet_int.return>>>}|))
(define-fun .def_415 () Bool (= |!{%mem.0}.next| .def_399))
(define-fun .def_404 () Int (* (- 1) |!{$(in_main#0)<k>}.next|))
(define-fun .def_405 () Int (+ .def_16 .def_404))
(define-fun .def_406 () Bool (= .def_405 (- 1)))
(define-fun .def_10 () Int (! |!{$(in_main#0)<$(in_rec_array_bubble_sort#4)<swapped>>}| :next |!{$(in_main#0)<$(in_rec_array_bubble_sort#4)<swapped>>}.next|))
(define-fun .def_81 () Bool (= .def_10 |!{$(in_main#0)<$(in_rec_array_bubble_sort#4)<swapped>>}.next|))
(define-fun .def_8 () Int (! |!{$(in_main#0)<$(in_rec_array_bubble_sort#4)<j>>}| :next |!{$(in_main#0)<$(in_rec_array_bubble_sort#4)<j>>}.next|))
(define-fun .def_80 () Bool (= .def_8 |!{$(in_main#0)<$(in_rec_array_bubble_sort#4)<j>>}.next|))
(define-fun .def_82 () Bool (and .def_80 .def_81))
(define-fun .def_122 () Bool (and .def_82 .def_121))
(define-fun .def_124 () Bool (and .def_122 .def_123))
(define-fun .def_407 () Bool (and .def_124 .def_406))
(define-fun .def_408 () Bool (and .def_127 .def_407))
(define-fun .def_409 () Bool (and .def_149 .def_408))
(define-fun .def_410 () Bool (and .def_93 .def_409))
(define-fun .def_411 () Bool (and .def_95 .def_410))
(define-fun .def_412 () Bool (and .def_97 .def_411))
(define-fun .def_413 () Bool (and .def_99 .def_412))
(define-fun .def_414 () Bool (and .def_137 .def_413))
(define-fun .def_416 () Bool (and .def_414 .def_415))
(define-fun .def_34 () Int (! |!{$(in_main#0)<$(in_rec_array_bubble_sort#4)<array>>}| :next |!{$(in_main#0)<$(in_rec_array_bubble_sort#4)<array>>}.next|))
(define-fun .def_105 () Bool (= .def_34 |!{$(in_main#0)<$(in_rec_array_bubble_sort#4)<array>>}.next|))
(define-fun .def_417 () Bool (and .def_105 .def_416))
(define-fun .def_36 () Int (! |!{$(in_main#0)<$(in_rec_array_bubble_sort#4)<N>>}| :next |!{$(in_main#0)<$(in_rec_array_bubble_sort#4)<N>>}.next|))
(define-fun .def_107 () Bool (= .def_36 |!{$(in_main#0)<$(in_rec_array_bubble_sort#4)<N>>}.next|))
(define-fun .def_418 () Bool (and .def_107 .def_417))
(define-fun .def_397 () Bool (not .def_396))
(define-fun .def_419 () Bool (and .def_397 .def_418))
(define-fun .def_443 () Bool (and .def_419 .def_442))
(define-fun .def_446 () Bool (or .def_443 .def_445))
(define-fun .def_385 () Bool (= .def_60 77))
(define-fun .def_234 () Bool (= !pc.next 161))
(define-fun .def_392 () Bool (and .def_234 .def_385))
(define-fun .def_338 () Bool (= .def_10 0))
(define-fun .def_290 () Bool (= |!{$(in_main#0)<k#1>}.next| 0))
(define-fun .def_126 () Bool (and .def_124 .def_125))
(define-fun .def_291 () Bool (and .def_126 .def_290))
(define-fun .def_292 () Bool (and .def_149 .def_291))
(define-fun .def_293 () Bool (and .def_93 .def_292))
(define-fun .def_294 () Bool (and .def_95 .def_293))
(define-fun .def_295 () Bool (and .def_97 .def_294))
(define-fun .def_296 () Bool (and .def_99 .def_295))
(define-fun .def_297 () Bool (and .def_137 .def_296))
(define-fun .def_298 () Bool (and .def_103 .def_297))
(define-fun .def_299 () Bool (and .def_105 .def_298))
(define-fun .def_300 () Bool (and .def_107 .def_299))
(define-fun .def_382 () Bool (and .def_300 .def_338))
(define-fun .def_311 () Bool (<= 0 .def_8))
(define-fun .def_337 () Bool (not .def_311))
(define-fun .def_383 () Bool (and .def_337 .def_382))
(define-fun .def_393 () Bool (and .def_383 .def_392))
(define-fun .def_304 () Bool (= !pc.next 120))
(define-fun .def_389 () Bool (and .def_304 .def_385))
(define-fun .def_374 () Bool (= |!{$(in_main#0)<$(in_rec_array_bubble_sort#4)<$(in_rec_array_bubble_sort#0)<swapped>>>}.next| 0))
(define-fun .def_370 () Int (* (- 1) .def_36))
(define-fun .def_371 () Int (+ |!{$(in_main#0)<$(in_rec_array_bubble_sort#4)<$(in_rec_array_bubble_sort#0)<j>>>}.next| .def_370))
(define-fun .def_372 () Bool (= .def_371 (- 2)))
(define-fun .def_368 () Bool (= |!{$(in_main#0)<$(in_rec_array_bubble_sort#4)<$(in_rec_array_bubble_sort#0)<N>>>}.next| .def_36))
(define-fun .def_366 () Bool (= |!{$(in_main#0)<$(in_rec_array_bubble_sort#4)<$(in_rec_array_bubble_sort#0)<array>>>}.next| .def_34))
(define-fun .def_128 () Bool (and .def_126 .def_127))
(define-fun .def_274 () Bool (and .def_128 .def_149))
(define-fun .def_367 () Bool (and .def_274 .def_366))
(define-fun .def_369 () Bool (and .def_367 .def_368))
(define-fun .def_373 () Bool (and .def_369 .def_372))
(define-fun .def_375 () Bool (and .def_373 .def_374))
(define-fun .def_376 () Bool (and .def_137 .def_375))
(define-fun .def_377 () Bool (and .def_103 .def_376))
(define-fun .def_378 () Bool (and .def_105 .def_377))
(define-fun .def_379 () Bool (and .def_107 .def_378))
(define-fun .def_339 () Bool (not .def_338))
(define-fun .def_380 () Bool (and .def_339 .def_379))
(define-fun .def_381 () Bool (and .def_337 .def_380))
(define-fun .def_390 () Bool (and .def_381 .def_389))
(define-fun .def_387 () Bool (and .def_385 .def_386))
(define-fun .def_349 () Bool (= |!{$(in_main#0)<$(in_rec_array_bubble_sort#4)<swapped>>}.next| |%{$(in_main#0)<$(in_rec_array_bubble_sort#4)<swapped>>}#2|))
(define-fun .def_346 () Int (* (- 1) |!{$(in_main#0)<$(in_rec_array_bubble_sort#4)<j>>}.next|))
(define-fun .def_347 () Int (+ .def_8 .def_346))
(define-fun .def_348 () Bool (= .def_347 1))
(define-fun .def_350 () Bool (and .def_348 .def_349))
(define-fun .def_351 () Bool (and .def_121 .def_350))
(define-fun .def_352 () Bool (and .def_123 .def_351))
(define-fun .def_353 () Bool (and .def_125 .def_352))
(define-fun .def_354 () Bool (and .def_127 .def_353))
(define-fun .def_355 () Bool (and .def_149 .def_354))
(define-fun .def_356 () Bool (and .def_93 .def_355))
(define-fun .def_357 () Bool (and .def_95 .def_356))
(define-fun .def_358 () Bool (and .def_97 .def_357))
(define-fun .def_359 () Bool (and .def_99 .def_358))
(define-fun .def_360 () Bool (and .def_137 .def_359))
(define-fun .def_284 () Bool (= |!{%mem.0}.next| |%{%mem.0}#3|))
(define-fun .def_361 () Bool (and .def_284 .def_360))
(define-fun .def_362 () Bool (and .def_105 .def_361))
(define-fun .def_363 () Bool (and .def_107 .def_362))
(define-fun .def_312 () Int (+ .def_8 .def_34))
(define-fun .def_313 () Int (select .def_32 .def_312))
(define-fun .def_316 () Int (+ .def_312 1))
(define-fun .def_317 () Int (select .def_32 .def_316))
(define-fun .def_320 () (Array Int Int) (store .def_32 .def_312 .def_317))
(define-fun .def_321 () (Array Int Int) (store .def_320 .def_316 .def_313))
(define-fun .def_331 () Bool (= |%{%mem.0}#3| .def_321))
(define-fun .def_327 () Bool (= |%{$(in_main#0)<$(in_rec_array_bubble_sort#4)<swapped>>}#2| 1))
(define-fun .def_318 () Bool (<= .def_313 .def_317))
(define-fun .def_319 () Bool (not .def_318))
(define-fun .def_329 () Bool (and .def_319 .def_327))
(define-fun .def_333 () Bool (and .def_329 .def_331))
(define-fun .def_326 () Bool (= .def_10 |%{$(in_main#0)<$(in_rec_array_bubble_sort#4)<swapped>>}#2|))
(define-fun .def_328 () Bool (and .def_318 .def_326))
(define-fun .def_262 () Bool (= .def_32 |%{%mem.0}#3|))
(define-fun .def_332 () Bool (and .def_262 .def_328))
(define-fun .def_334 () Bool (or .def_332 .def_333))
(define-fun .def_364 () Bool (and .def_334 .def_363))
(define-fun .def_365 () Bool (and .def_311 .def_364))
(define-fun .def_388 () Bool (and .def_365 .def_387))
(define-fun .def_391 () Bool (or .def_388 .def_390))
(define-fun .def_394 () Bool (or .def_391 .def_393))
(define-fun .def_303 () Bool (= .def_60 120))
(define-fun .def_307 () Bool (and .def_234 .def_303))
(define-fun .def_241 () Bool (<= 0 .def_26))
(define-fun .def_269 () Bool (not .def_241))
(define-fun .def_301 () Bool (and .def_269 .def_300))
(define-fun .def_308 () Bool (and .def_301 .def_307))
(define-fun .def_305 () Bool (and .def_303 .def_304))
(define-fun .def_281 () Bool (= |!{$(in_main#0)<$(in_rec_array_bubble_sort#4)<$(in_rec_array_bubble_sort#0)<swapped>>>}.next| |%{$(in_main#0)<$(in_rec_array_bubble_sort#4)<$(in_rec_array_bubble_sort#0)<swapped>>>}#2|))
(define-fun .def_277 () Int (* (- 1) |!{$(in_main#0)<$(in_rec_array_bubble_sort#4)<$(in_rec_array_bubble_sort#0)<j>>>}.next|))
(define-fun .def_278 () Int (+ .def_26 .def_277))
(define-fun .def_279 () Bool (= .def_278 1))
(define-fun .def_275 () Bool (and .def_93 .def_274))
(define-fun .def_276 () Bool (and .def_95 .def_275))
(define-fun .def_280 () Bool (and .def_276 .def_279))
(define-fun .def_282 () Bool (and .def_280 .def_281))
(define-fun .def_283 () Bool (and .def_137 .def_282))
(define-fun .def_285 () Bool (and .def_283 .def_284))
(define-fun .def_286 () Bool (and .def_105 .def_285))
(define-fun .def_287 () Bool (and .def_107 .def_286))
(define-fun .def_242 () Int (+ .def_22 .def_26))
(define-fun .def_243 () Int (select .def_32 .def_242))
(define-fun .def_246 () Int (+ .def_242 1))
(define-fun .def_247 () Int (select .def_32 .def_246))
(define-fun .def_250 () (Array Int Int) (store .def_32 .def_242 .def_247))
(define-fun .def_251 () (Array Int Int) (store .def_250 .def_246 .def_243))
(define-fun .def_263 () Bool (= .def_251 |%{%mem.0}#3|))
(define-fun .def_257 () Bool (= |%{$(in_main#0)<$(in_rec_array_bubble_sort#4)<$(in_rec_array_bubble_sort#0)<swapped>>>}#2| 1))
(define-fun .def_248 () Bool (<= .def_243 .def_247))
(define-fun .def_249 () Bool (not .def_248))
(define-fun .def_259 () Bool (and .def_249 .def_257))
(define-fun .def_265 () Bool (and .def_259 .def_263))
(define-fun .def_256 () Bool (= .def_28 |%{$(in_main#0)<$(in_rec_array_bubble_sort#4)<$(in_rec_array_bubble_sort#0)<swapped>>>}#2|))
(define-fun .def_258 () Bool (and .def_248 .def_256))
(define-fun .def_264 () Bool (and .def_258 .def_262))
(define-fun .def_266 () Bool (or .def_264 .def_265))
(define-fun .def_288 () Bool (and .def_266 .def_287))
(define-fun .def_289 () Bool (and .def_241 .def_288))
(define-fun .def_306 () Bool (and .def_289 .def_305))
(define-fun .def_309 () Bool (or .def_306 .def_308))
(define-fun .def_226 () Bool (= .def_60 169))
(define-fun .def_235 () Bool (and .def_226 .def_234))
(define-fun .def_212 () Int (* (- 1) |!{$(in_main#0)<k#1>}.next|))
(define-fun .def_213 () Int (+ .def_18 .def_212))
(define-fun .def_214 () Bool (= .def_213 (- 1)))
(define-fun .def_215 () Bool (and .def_126 .def_214))
(define-fun .def_216 () Bool (and .def_149 .def_215))
(define-fun .def_217 () Bool (and .def_93 .def_216))
(define-fun .def_218 () Bool (and .def_95 .def_217))
(define-fun .def_219 () Bool (and .def_97 .def_218))
(define-fun .def_220 () Bool (and .def_99 .def_219))
(define-fun .def_221 () Bool (and .def_137 .def_220))
(define-fun .def_222 () Bool (and .def_103 .def_221))
(define-fun .def_223 () Bool (and .def_105 .def_222))
(define-fun .def_224 () Bool (and .def_107 .def_223))
(define-fun .def_170 () Bool (<= .def_12 .def_20))
(define-fun .def_225 () Bool (and .def_170 .def_224))
(define-fun .def_236 () Bool (and .def_225 .def_235))
(define-fun .def_162 () Bool (= !pc.next 169))
(define-fun .def_231 () Bool (and .def_162 .def_226))
(define-fun .def_129 () Int (* (- 1) |!{$(in_main#0)<l>}.next|))
(define-fun .def_199 () Int (+ .def_20 .def_129))
(define-fun .def_200 () Bool (= .def_199 (- 1)))
(define-fun .def_201 () Bool (and .def_128 .def_200))
(define-fun .def_202 () Bool (and .def_93 .def_201))
(define-fun .def_203 () Bool (and .def_95 .def_202))
(define-fun .def_204 () Bool (and .def_97 .def_203))
(define-fun .def_205 () Bool (and .def_99 .def_204))
(define-fun .def_206 () Bool (and .def_137 .def_205))
(define-fun .def_207 () Bool (and .def_103 .def_206))
(define-fun .def_208 () Bool (and .def_105 .def_207))
(define-fun .def_209 () Bool (and .def_107 .def_208))
(define-fun .def_174 () Int (+ .def_14 .def_20))
(define-fun .def_175 () Int (select .def_32 .def_174))
(define-fun .def_172 () Int (+ .def_14 .def_18))
(define-fun .def_173 () Int (select .def_32 .def_172))
(define-fun .def_176 () Bool (<= .def_173 .def_175))
(define-fun .def_177 () Int (ite .def_176 1 0))
(define-fun .def_178 () Bool (= .def_177 0))
(define-fun .def_179 () Bool (not .def_178))
(define-fun .def_210 () Bool (and .def_179 .def_209))
(define-fun .def_171 () Bool (not .def_170))
(define-fun .def_211 () Bool (and .def_171 .def_210))
(define-fun .def_232 () Bool (and .def_211 .def_231))
(define-fun .def_228 () Bool (= !pc.next 189))
(define-fun .def_229 () Bool (and .def_226 .def_228))
(define-fun .def_183 () Bool (and .def_80 .def_178))
(define-fun .def_184 () Bool (and .def_81 .def_183))
(define-fun .def_185 () Bool (and .def_121 .def_184))
(define-fun .def_186 () Bool (and .def_123 .def_185))
(define-fun .def_187 () Bool (and .def_125 .def_186))
(define-fun .def_188 () Bool (and .def_127 .def_187))
(define-fun .def_189 () Bool (and .def_149 .def_188))
(define-fun .def_190 () Bool (and .def_93 .def_189))
(define-fun .def_191 () Bool (and .def_95 .def_190))
(define-fun .def_192 () Bool (and .def_97 .def_191))
(define-fun .def_193 () Bool (and .def_99 .def_192))
(define-fun .def_194 () Bool (and .def_137 .def_193))
(define-fun .def_195 () Bool (and .def_103 .def_194))
(define-fun .def_196 () Bool (and .def_105 .def_195))
(define-fun .def_197 () Bool (and .def_107 .def_196))
(define-fun .def_198 () Bool (and .def_171 .def_197))
(define-fun .def_230 () Bool (and .def_198 .def_229))
(define-fun .def_233 () Bool (or .def_230 .def_232))
(define-fun .def_237 () Bool (or .def_233 .def_236))
(define-fun .def_165 () Bool (= !pc.next 0))
(define-fun .def_160 () Bool (= .def_60 161))
(define-fun .def_166 () Bool (and .def_160 .def_165))
(define-fun .def_116 () Int (* (- 1) .def_18))
(define-fun .def_117 () Int (+ .def_12 .def_116))
(define-fun .def_118 () Bool (<= .def_117 1))
(define-fun .def_143 () Bool (and .def_80 .def_118))
(define-fun .def_144 () Bool (and .def_81 .def_143))
(define-fun .def_145 () Bool (and .def_121 .def_144))
(define-fun .def_146 () Bool (and .def_123 .def_145))
(define-fun .def_147 () Bool (and .def_125 .def_146))
(define-fun .def_148 () Bool (and .def_127 .def_147))
(define-fun .def_150 () Bool (and .def_148 .def_149))
(define-fun .def_151 () Bool (and .def_93 .def_150))
(define-fun .def_152 () Bool (and .def_95 .def_151))
(define-fun .def_153 () Bool (and .def_97 .def_152))
(define-fun .def_154 () Bool (and .def_99 .def_153))
(define-fun .def_155 () Bool (and .def_137 .def_154))
(define-fun .def_156 () Bool (and .def_103 .def_155))
(define-fun .def_157 () Bool (and .def_105 .def_156))
(define-fun .def_158 () Bool (and .def_107 .def_157))
(define-fun .def_167 () Bool (and .def_158 .def_166))
(define-fun .def_163 () Bool (and .def_160 .def_162))
(define-fun .def_130 () Int (+ .def_18 .def_129))
(define-fun .def_131 () Bool (= .def_130 (- 1)))
(define-fun .def_132 () Bool (and .def_128 .def_131))
(define-fun .def_133 () Bool (and .def_93 .def_132))
(define-fun .def_134 () Bool (and .def_95 .def_133))
(define-fun .def_135 () Bool (and .def_97 .def_134))
(define-fun .def_136 () Bool (and .def_99 .def_135))
(define-fun .def_138 () Bool (and .def_136 .def_137))
(define-fun .def_139 () Bool (and .def_103 .def_138))
(define-fun .def_140 () Bool (and .def_105 .def_139))
(define-fun .def_141 () Bool (and .def_107 .def_140))
(define-fun .def_119 () Bool (not .def_118))
(define-fun .def_142 () Bool (and .def_119 .def_141))
(define-fun .def_164 () Bool (and .def_142 .def_163))
(define-fun .def_168 () Bool (or .def_164 .def_167))
(define-fun .def_112 () Bool (and .def_63 .def_111))
(define-fun .def_101 () Bool (= |!{%memaddr}.next| 2))
(define-fun .def_91 () Bool (= |!{$(in_main#0)<l>}.next| |%{$(in_main#0)<l>}#1|))
(define-fun .def_89 () Bool (= |!{$(in_main#0)<k#1>}.next| |%{$(in_main#0)<k#1>}#1|))
(define-fun .def_87 () Bool (= |!{$(in_main#0)<k>}.next| 0))
(define-fun .def_85 () Bool (= |!{$(in_main#0)<&array>}.next| 1))
(define-fun .def_83 () Bool (= |!{$(in_main#0)<N>}.next| |!{$(in_main#0)<$(in___VERIFIER_nondet_int#1)<h#<__VERIFIER_nondet_int.return>>>}|))
(define-fun .def_84 () Bool (and .def_82 .def_83))
(define-fun .def_86 () Bool (and .def_84 .def_85))
(define-fun .def_88 () Bool (and .def_86 .def_87))
(define-fun .def_90 () Bool (and .def_88 .def_89))
(define-fun .def_92 () Bool (and .def_90 .def_91))
(define-fun .def_94 () Bool (and .def_92 .def_93))
(define-fun .def_96 () Bool (and .def_94 .def_95))
(define-fun .def_98 () Bool (and .def_96 .def_97))
(define-fun .def_100 () Bool (and .def_98 .def_99))
(define-fun .def_102 () Bool (and .def_100 .def_101))
(define-fun .def_104 () Bool (and .def_102 .def_103))
(define-fun .def_106 () Bool (and .def_104 .def_105))
(define-fun .def_108 () Bool (and .def_106 .def_107))
(define-fun .def_75 () Bool (<= |!{$(in_main#0)<$(in___VERIFIER_nondet_int#1)<h#<__VERIFIER_nondet_int.return>>>}| 0))
(define-fun .def_76 () Bool (not .def_75))
(define-fun .def_77 () Int (ite .def_76 1 0))
(define-fun .def_78 () Bool (= .def_77 0))
(define-fun .def_79 () Bool (not .def_78))
(define-fun .def_109 () Bool (and .def_79 .def_108))
(define-fun .def_113 () Bool (and .def_109 .def_112))
(define-fun .def_169 () Bool (or .def_113 .def_168))
(define-fun .def_238 () Bool (or .def_169 .def_237))
(define-fun .def_310 () Bool (or .def_238 .def_309))
(define-fun .def_395 () Bool (or .def_310 .def_394))
(define-fun .def_447 () Bool (! (or .def_395 .def_446) :trans true))
(define-fun .def_239 () Bool (= .def_60 189))
(define-fun .def_448 () Bool (! (not .def_239) :invar-property 0 :invar-property-name ||))
(assert true)
